NAME: random_40_2
TYPE: TSP
COMMENT: random_40_2
DIMENSION: 40
EDGE_WEIGHT_TYPE: EUC_2D
NODE_COORD_SECTION
1 68 395
2 173 10
3 160 134
4 162 360
5 286 313
6 61 53
7 192 309
8 335 169
9 134 230
10 360 235
11 478 402
12 316 445
13 119 399
14 39 347
15 7 82
16 14 476
17 402 163
18 464 323
19 483 338
20 361 326
21 308 139
22 288 421
23 218 331
24 15 277
25 388 355
26 234 467
27 474 384
28 336 397
29 236 62
30 348 327
31 430 342
32 400 313
33 224 363
34 341 437
35 391 13
36 248 271
37 180 100
38 150 33
39 122 117
40 243 13
